texs 16
0.005355 0.007181
0.496459 0.007181
0.496459 0.497068
0.005355 0.497068
0.002937 0.505013
0.497693 0.505013
0.497693 0.997335
0.002937 0.997335
0.002937 0.505013
0.497693 0.505013
0.497693 0.997335
0.002937 0.997335
0.002937 0.505013
0.497693 0.505013
0.497693 0.997335
0.002937 0.997335
tris 8
0 1 2
2 3 0
4 5 6
6 7 4
8 9 10
10 11 8
12 13 14
14 15 12
numframes 1
frame 0
-5.000000 10.000000 5.000000
5.000000 10.000000 5.000000
5.000000 10.000000 -5.000000
-5.000000 10.000000 -5.000000
-5.000000 0.000000 5.000000
5.000000 0.000000 5.000000
5.000000 10.000000 5.000000
-5.000000 10.000000 5.000000
5.000000 0.000000 5.000000
5.000000 0.000000 -5.000000
5.000000 10.000000 -5.000000
5.000000 10.000000 5.000000
-5.000000 0.000000 -5.000000
-5.000000 0.000000 5.000000
-5.000000 10.000000 5.000000
-5.000000 10.000000 -5.000000
